25° run output:
{
    "Function": "kroA750.tsp",
    "Problem dimension": [
        514,
        400,
        130,
        600,
        82,
        336,
        349,
        371,
        547,
        397,
        301,
        656,
        105,
        569,
        52,
        28,
        187,
        535,
        17,
        562,
        139,
        293,
        747,
        454,
        526,
        447,
        695,
        445,
        749,
        679,
        675,
        692,
        132,
        475,
        70,
        201,
        620,
        290,
        548,
        406,
        74,
        75,
        180,
        162,
        46,
        459,
        244,
        66,
        670,
        348,
        142,
        43,
        249,
        296,
        237,
        464,
        533,
        425,
        167,
        378,
        594,
        352,
        165,
        81,
        116,
        732,
        529,
        551,
        228,
        649,
        677,
        482,
        45,
        389,
        633,
        272,
        22,
        101,
        55,
        216,
        313,
        14,
        3,
        719,
        35,
        262,
        391,
        606,
        534,
        546,
        652,
        420,
        599,
        318,
        734,
        251,
        434,
        470,
        89,
        145,
        631,
        739,
        382,
        398,
        356,
        741,
        603,
        591,
        544,
        374,
        277,
        462,
        383,
        1,
        604,
        255,
        194,
        564,
        193,
        511,
        682,
        222,
        8,
        384,
        518,
        207,
        56,
        694,
        137,
        158,
        707,
        213,
        215,
        93,
        517,
        254,
        665,
        525,
        133,
        545,
        539,
        691,
        659,
        111,
        236,
        650,
        86,
        387,
        61,
        323,
        24,
        590,
        359,
        516,
        261,
        38,
        676,
        500,
        731,
        122,
        472,
        530,
        351,
        716,
        360,
        455,
        149,
        639,
        721,
        708,
        431,
        300,
        242,
        53,
        666,
        304,
        163,
        422,
        334,
        5,
        264,
        59,
        641,
        32,
        39,
        91,
        504,
        221,
        256,
        65,
        687,
        189,
        342,
        712,
        458,
        596,
        494,
        186,
        71,
        565,
        643,
        316,
        595,
        119,
        157,
        689,
        379,
        744,
        13,
        684,
        574,
        258,
        40,
        94,
        129,
        617,
        347,
        235,
        265,
        531,
        380,
        9,
        669,
        120,
        58,
        448,
        69,
        143,
        433,
        286,
        704,
        542,
        138,
        4,
        156,
        510,
        376,
        217,
        520,
        121,
        451,
        622,
        426,
        623,
        513,
        558,
        644,
        354,
        579,
        333,
        610,
        231,
        408,
        416,
        319,
        487,
        205,
        83,
        31,
        728,
        674,
        310,
        161,
        696,
        661,
        115,
        496,
        512,
        452,
        614,
        626,
        399,
        642,
        519,
        673,
        48,
        107,
        706,
        123,
        190,
        295,
        0,
        97,
        331,
        663,
        311,
        259,
        245,
        724,
        627,
        505,
        624,
        358,
        636,
        492,
        419,
        612,
        208,
        441,
        740,
        159,
        554,
        104,
        51,
        11,
        169,
        377,
        12,
        443,
        365,
        184,
        370,
        432,
        686,
        592,
        484,
        576,
        364,
        499,
        407,
        77,
        23,
        330,
        463,
        308,
        449,
        250,
        305,
        428,
        152,
        465,
        42,
        508,
        298,
        436,
        710,
        394,
        438,
        285,
        90,
        552,
        219,
        457,
        135,
        628,
        335,
        405,
        291,
        742,
        490,
        570,
        289,
        337,
        282,
        325,
        414,
        503,
        402,
        131,
        699,
        571,
        619,
        170,
        322,
        385,
        76,
        456,
        2,
        404,
        214,
        638,
        713,
        442,
        413,
        629,
        210,
        275,
        317,
        645,
        703,
        412,
        134,
        654,
        324,
        715,
        646,
        263,
        461,
        309,
        299,
        345,
        685,
        227,
        635,
        493,
        141,
        283,
        179,
        88,
        375,
        202,
        80,
        615,
        468,
        466,
        246,
        607,
        199,
        681,
        287,
        103,
        166,
        583,
        312,
        100,
        363,
        368,
        605,
        392,
        232,
        586,
        711,
        478,
        720,
        18,
        203,
        737,
        522,
        234,
        588,
        102,
        267,
        630,
        582,
        655,
        19,
        33,
        79,
        253,
        469,
        474,
        568,
        403,
        238,
        230,
        16,
        632,
        41,
        580,
        566,
        743,
        502,
        688,
        30,
        672,
        497,
        339,
        95,
        553,
        257,
        563,
        362,
        225,
        584,
        477,
        556,
        274,
        667,
        204,
        528,
        155,
        153,
        154,
        690,
        746,
        279,
        488,
        491,
        729,
        648,
        417,
        175,
        726,
        183,
        315,
        124,
        390,
        151,
        577,
        343,
        117,
        664,
        341,
        637,
        197,
        561,
        328,
        239,
        578,
        444,
        415,
        589,
        501,
        146,
        218,
        106,
        168,
        172,
        486,
        34,
        67,
        128,
        229,
        560,
        367,
        479,
        327,
        144,
        224,
        395,
        21,
        736,
        252,
        36,
        266,
        64,
        223,
        63,
        587,
        240,
        410,
        140,
        581,
        498,
        353,
        192,
        439,
        453,
        366,
        735,
        585,
        598,
        714,
        350,
        424,
        233,
        709,
        435,
        173,
        198,
        373,
        226,
        96,
        191,
        270,
        702,
        748,
        188,
        340,
        427,
        320,
        125,
        212,
        62,
        269,
        705,
        271,
        559,
        47,
        611,
        593,
        314,
        114,
        634,
        658,
        260,
        20,
        338,
        550,
        421,
        549,
        92,
        495,
        147,
        85,
        423,
        613,
        44,
        727,
        284,
        10,
        196,
        575,
        738,
        118,
        241,
        521,
        388,
        733,
        321,
        489,
        409,
        281,
        440,
        480,
        177,
        618,
        393,
        481,
        697,
        112,
        446,
        73,
        509,
        99,
        538,
        292,
        616,
        54,
        127,
        178,
        27,
        164,
        678,
        329,
        113,
        693,
        730,
        381,
        601,
        206,
        557,
        72,
        660,
        567,
        243,
        745,
        50,
        220,
        543,
        683,
        625,
        247,
        396,
        332,
        276,
        57,
        537,
        182,
        609,
        294,
        126,
        278,
        307,
        297,
        723,
        29,
        15,
        211,
        506,
        136,
        176,
        437,
        717,
        150,
        430,
        572,
        37,
        181,
        608,
        273,
        411,
        527,
        647,
        471,
        473,
        369,
        651,
        701,
        6,
        657,
        372,
        78,
        653,
        209,
        185,
        84,
        7,
        698,
        302,
        597,
        541,
        174,
        200,
        450,
        49,
        326,
        725,
        467,
        401,
        671,
        662,
        160,
        621,
        680,
        532,
        357,
        361,
        485,
        524,
        507,
        26,
        668,
        280,
        460,
        108,
        718,
        306,
        476,
        87,
        483,
        25,
        523,
        555,
        288,
        195,
        248,
        573,
        722,
        602,
        68,
        98,
        344,
        640,
        60,
        418,
        148,
        540,
        110,
        355,
        171,
        386,
        700,
        268,
        536,
        346,
        429,
        109,
        303,
        515
    ],
    "Global Optimum": 0,
    "Algorithm": "Genetic algorithm",
    "Parameters": {
        "population": 30,
        "offspring": 30,
        "mutation probability": 0.0013333333333333333,
        "crossover probability": 0.9
    },
    "Fitness": 987478,
    "Solution": [
        514,
        400,
        130,
        600,
        82,
        336,
        349,
        371,
        547,
        397,
        301,
        656,
        105,
        569,
        52,
        28,
        187,
        535,
        17,
        562,
        139,
        293,
        747,
        454,
        526,
        447,
        695,
        445,
        749,
        679,
        675,
        692,
        132,
        475,
        70,
        201,
        620,
        290,
        548,
        406,
        74,
        75,
        180,
        162,
        46,
        459,
        244,
        66,
        670,
        348,
        142,
        43,
        249,
        296,
        237,
        464,
        533,
        425,
        167,
        378,
        594,
        352,
        165,
        81,
        116,
        732,
        529,
        551,
        228,
        649,
        677,
        482,
        45,
        389,
        633,
        272,
        22,
        101,
        55,
        216,
        313,
        14,
        3,
        719,
        35,
        262,
        391,
        606,
        534,
        546,
        652,
        420,
        599,
        318,
        734,
        251,
        434,
        470,
        89,
        145,
        631,
        739,
        382,
        398,
        356,
        741,
        603,
        591,
        544,
        374,
        277,
        462,
        383,
        1,
        604,
        255,
        194,
        564,
        193,
        511,
        682,
        222,
        8,
        384,
        518,
        207,
        56,
        694,
        137,
        158,
        707,
        213,
        215,
        93,
        517,
        254,
        665,
        525,
        133,
        545,
        539,
        691,
        659,
        111,
        236,
        650,
        86,
        387,
        61,
        323,
        24,
        590,
        359,
        516,
        261,
        38,
        676,
        500,
        731,
        122,
        472,
        530,
        351,
        716,
        360,
        455,
        149,
        639,
        721,
        708,
        431,
        300,
        242,
        53,
        666,
        304,
        163,
        422,
        334,
        5,
        264,
        59,
        641,
        32,
        39,
        91,
        504,
        221,
        256,
        65,
        687,
        189,
        342,
        712,
        458,
        596,
        494,
        186,
        71,
        565,
        643,
        316,
        595,
        119,
        157,
        689,
        379,
        744,
        13,
        684,
        574,
        258,
        40,
        94,
        129,
        617,
        347,
        235,
        265,
        531,
        380,
        9,
        669,
        120,
        58,
        448,
        69,
        143,
        433,
        286,
        704,
        542,
        138,
        4,
        156,
        510,
        376,
        217,
        520,
        121,
        451,
        622,
        426,
        623,
        513,
        558,
        644,
        354,
        579,
        333,
        610,
        231,
        408,
        416,
        319,
        487,
        205,
        83,
        31,
        728,
        674,
        310,
        161,
        696,
        661,
        115,
        496,
        512,
        452,
        614,
        626,
        399,
        642,
        519,
        673,
        48,
        107,
        706,
        123,
        190,
        295,
        0,
        97,
        331,
        663,
        311,
        259,
        245,
        724,
        627,
        505,
        624,
        358,
        636,
        492,
        419,
        612,
        208,
        441,
        740,
        159,
        554,
        104,
        51,
        11,
        169,
        377,
        12,
        443,
        365,
        184,
        370,
        432,
        686,
        592,
        484,
        576,
        364,
        499,
        407,
        77,
        23,
        330,
        463,
        308,
        449,
        250,
        305,
        428,
        152,
        465,
        42,
        508,
        298,
        436,
        710,
        394,
        438,
        285,
        90,
        552,
        219,
        457,
        135,
        628,
        335,
        405,
        291,
        742,
        490,
        570,
        289,
        337,
        282,
        325,
        414,
        503,
        402,
        131,
        699,
        571,
        619,
        170,
        322,
        385,
        76,
        456,
        2,
        404,
        214,
        638,
        713,
        442,
        413,
        629,
        210,
        275,
        317,
        645,
        703,
        412,
        134,
        654,
        324,
        715,
        646,
        263,
        461,
        309,
        299,
        345,
        685,
        227,
        635,
        493,
        141,
        283,
        179,
        88,
        375,
        202,
        80,
        615,
        468,
        466,
        246,
        607,
        199,
        681,
        287,
        103,
        166,
        583,
        312,
        100,
        363,
        368,
        605,
        392,
        232,
        586,
        711,
        478,
        720,
        18,
        203,
        737,
        522,
        234,
        588,
        102,
        267,
        630,
        582,
        655,
        19,
        33,
        79,
        253,
        469,
        474,
        568,
        403,
        238,
        230,
        16,
        632,
        41,
        580,
        566,
        743,
        502,
        688,
        30,
        672,
        497,
        339,
        95,
        553,
        257,
        563,
        362,
        225,
        584,
        477,
        556,
        274,
        667,
        204,
        528,
        155,
        153,
        154,
        690,
        746,
        279,
        488,
        491,
        729,
        648,
        417,
        175,
        726,
        183,
        315,
        124,
        390,
        151,
        577,
        343,
        117,
        664,
        341,
        637,
        197,
        561,
        328,
        239,
        578,
        444,
        415,
        589,
        501,
        146,
        218,
        106,
        168,
        172,
        486,
        34,
        67,
        128,
        229,
        560,
        367,
        479,
        327,
        144,
        224,
        395,
        21,
        736,
        252,
        36,
        266,
        64,
        223,
        63,
        587,
        240,
        410,
        140,
        581,
        498,
        353,
        192,
        439,
        453,
        366,
        735,
        585,
        598,
        714,
        350,
        424,
        233,
        709,
        435,
        173,
        198,
        373,
        226,
        96,
        191,
        270,
        702,
        748,
        188,
        340,
        427,
        320,
        125,
        212,
        62,
        269,
        705,
        271,
        559,
        47,
        611,
        593,
        314,
        114,
        634,
        658,
        260,
        20,
        338,
        550,
        421,
        549,
        92,
        495,
        147,
        85,
        423,
        613,
        44,
        727,
        284,
        10,
        196,
        575,
        738,
        118,
        241,
        521,
        388,
        733,
        321,
        489,
        409,
        281,
        440,
        480,
        177,
        618,
        393,
        481,
        697,
        112,
        446,
        73,
        509,
        99,
        538,
        292,
        616,
        54,
        127,
        178,
        27,
        164,
        678,
        329,
        113,
        693,
        730,
        381,
        601,
        206,
        557,
        72,
        660,
        567,
        243,
        745,
        50,
        220,
        543,
        683,
        625,
        247,
        396,
        332,
        276,
        57,
        537,
        182,
        609,
        294,
        126,
        278,
        307,
        297,
        723,
        29,
        15,
        211,
        506,
        136,
        176,
        437,
        717,
        150,
        430,
        572,
        37,
        181,
        608,
        273,
        411,
        527,
        647,
        471,
        473,
        369,
        651,
        701,
        6,
        657,
        372,
        78,
        653,
        209,
        185,
        84,
        7,
        698,
        302,
        597,
        541,
        174,
        200,
        450,
        49,
        326,
        725,
        467,
        401,
        671,
        662,
        160,
        621,
        680,
        532,
        357,
        361,
        485,
        524,
        507,
        26,
        668,
        280,
        460,
        108,
        718,
        306,
        476,
        87,
        483,
        25,
        523,
        555,
        288,
        195,
        248,
        573,
        722,
        602,
        68,
        98,
        344,
        640,
        60,
        418,
        148,
        540,
        110,
        355,
        171,
        386,
        700,
        268,
        536,
        346,
        429,
        109,
        303,
        515
    ],
    "Nb of functions evaluations": 50010,
    "Computational time in seconds": 794.4802317619324,
    "Stopping criterion in evaluations": 50000
}